NAME : RWPToy-10-1.872703400.tour
COMMENT : Length = 872703400
COMMENT : Found by LKH [Keld Helsgaun] Sat Nov 24 00:57:24 2018
TYPE : TOUR
DIMENSION : 15
TOUR_SECTION
1
4
7
6
5
11
2
8
3
10
9
12
14
15
13
-1
EOF
